c solution = True
p edge 400 399
e 9 1 1
e 8 9 1
e 13 9 1
e 43 9 1
e 250 9 1
e 249 250 1
e 280 250 1
e 279 280 1
e 289 280 1
e 248 249 1
e 376 248 1
e 42 43 1
e 300 43 1
e 41 42 1
e 103 42 1
e 102 103 1
e 274 103 1
e 396 274 1
e 101 102 1
e 313 102 1
e 100 101 1
e 214 101 1
e 282 101 1
e 99 100 1
e 247 100 1
e 98 99 1
e 97 98 1
e 195 97 1
e 232 97 1
e 231 232 1
e 266 232 1
e 230 231 1
e 229 230 1
e 240 230 1
e 330 240 1
e 366 240 1
e 379 229 1
e 194 195 1
e 353 194 1
e 387 353 1
e 40 41 1
e 39 40 1
e 96 40 1
e 95 96 1
e 373 96 1
e 206 95 1
e 205 206 1
e 235 206 1
e 310 235 1
e 269 205 1
e 287 205 1
e 340 205 1
e 286 287 1
e 334 287 1
e 285 286 1
e 38 39 1
e 148 39 1
e 342 39 1
e 368 342 1
e 147 148 1
e 149 148 1
e 213 148 1
e 212 213 1
e 346 212 1
e 146 147 1
e 145 146 1
e 283 146 1
e 144 145 1
e 37 38 1
e 36 37 1
e 154 37 1
e 153 154 1
e 196 154 1
e 354 196 1
e 254 153 1
e 35 36 1
e 34 35 1
e 166 35 1
e 187 35 1
e 309 187 1
e 165 166 1
e 215 166 1
e 164 165 1
e 163 164 1
e 162 163 1
e 161 162 1
e 203 162 1
e 33 34 1
e 32 33 1
e 56 32 1
e 157 32 1
e 253 157 1
e 284 157 1
e 350 157 1
e 352 157 1
e 382 56 1
e 12 13 1
e 11 12 1
e 186 12 1
e 10 11 1
e 31 11 1
e 30 31 1
e 223 31 1
e 241 223 1
e 355 223 1
e 383 355 1
e 29 30 1
e 28 29 1
e 79 29 1
e 78 79 1
e 77 78 1
e 216 78 1
e 239 216 1
e 76 77 1
e 160 77 1
e 159 160 1
e 238 160 1
e 398 160 1
e 362 238 1
e 158 159 1
e 367 158 1
e 75 76 1
e 74 75 1
e 73 74 1
e 72 73 1
e 184 73 1
e 333 73 1
e 389 184 1
e 71 72 1
e 70 71 1
e 395 71 1
e 69 70 1
e 68 69 1
e 178 69 1
e 371 69 1
e 177 178 1
e 67 68 1
e 66 67 1
e 65 66 1
e 288 66 1
e 397 288 1
e 400 397 1
e 64 65 1
e 268 65 1
e 267 268 1
e 63 64 1
e 151 64 1
e 150 151 1
e 308 150 1
e 329 150 1
e 307 308 1
e 306 307 1
e 359 307 1
e 62 63 1
e 61 62 1
e 83 62 1
e 82 83 1
e 125 83 1
e 124 125 1
e 127 124 1
e 385 124 1
e 126 127 1
e 252 127 1
e 321 127 1
e 358 127 1
e 357 358 1
e 320 321 1
e 319 320 1
e 399 320 1
e 251 252 1
e 81 82 1
e 80 81 1
e 107 80 1
e 302 80 1
e 338 80 1
e 106 107 1
e 105 106 1
e 104 105 1
e 297 104 1
e 328 297 1
e 327 328 1
e 244 61 1
e 243 244 1
e 377 244 1
e 242 243 1
e 275 242 1
e 27 28 1
e 26 27 1
e 25 26 1
e 185 26 1
e 312 185 1
e 24 25 1
e 88 25 1
e 170 25 1
e 169 170 1
e 168 169 1
e 167 168 1
e 202 167 1
e 201 202 1
e 245 201 1
e 332 201 1
e 87 88 1
e 86 87 1
e 85 86 1
e 84 85 1
e 138 85 1
e 137 138 1
e 136 137 1
e 197 137 1
e 233 137 1
e 257 197 1
e 256 257 1
e 259 257 1
e 345 259 1
e 344 345 1
e 356 345 1
e 237 136 1
e 236 237 1
e 23 24 1
e 314 24 1
e 122 10 1
e 121 122 1
e 258 122 1
e 375 122 1
e 120 121 1
e 119 120 1
e 123 120 1
e 200 123 1
e 199 200 1
e 263 200 1
e 341 200 1
e 262 263 1
e 198 199 1
e 222 199 1
e 228 222 1
e 351 228 1
e 118 119 1
e 278 119 1
e 374 119 1
e 277 278 1
e 337 278 1
e 336 337 1
e 117 118 1
e 152 118 1
e 261 118 1
e 260 261 1
e 116 117 1
e 115 116 1
e 172 116 1
e 317 116 1
e 171 172 1
e 265 172 1
e 369 171 1
e 114 115 1
e 156 115 1
e 339 115 1
e 113 114 1
e 112 113 1
e 111 112 1
e 110 111 1
e 204 111 1
e 326 204 1
e 325 326 1
e 109 110 1
e 108 109 1
e 7 8 1
e 6 7 1
e 22 7 1
e 273 7 1
e 21 22 1
e 20 21 1
e 19 20 1
e 324 20 1
e 323 324 1
e 18 19 1
e 53 19 1
e 52 53 1
e 51 52 1
e 55 52 1
e 363 52 1
e 54 55 1
e 378 55 1
e 50 51 1
e 49 50 1
e 48 49 1
e 386 49 1
e 394 49 1
e 47 48 1
e 281 48 1
e 305 48 1
e 304 305 1
e 303 304 1
e 361 303 1
e 360 361 1
e 46 47 1
e 45 46 1
e 365 46 1
e 44 45 1
e 183 45 1
e 182 183 1
e 181 182 1
e 180 181 1
e 179 180 1
e 295 180 1
e 298 180 1
e 391 298 1
e 294 295 1
e 218 44 1
e 290 44 1
e 217 218 1
e 276 217 1
e 380 217 1
e 17 18 1
e 348 18 1
e 390 18 1
e 16 17 1
e 15 16 1
e 94 16 1
e 315 16 1
e 93 94 1
e 255 94 1
e 92 93 1
e 221 93 1
e 220 221 1
e 219 220 1
e 227 219 1
e 293 219 1
e 335 219 1
e 292 293 1
e 343 227 1
e 91 92 1
e 90 91 1
e 89 90 1
e 132 90 1
e 131 132 1
e 130 131 1
e 291 131 1
e 129 130 1
e 143 130 1
e 192 130 1
e 372 192 1
e 142 143 1
e 211 143 1
e 226 143 1
e 210 211 1
e 209 210 1
e 264 210 1
e 392 264 1
e 208 209 1
e 207 208 1
e 141 142 1
e 140 141 1
e 139 140 1
e 246 140 1
e 364 246 1
e 128 129 1
e 388 129 1
e 135 128 1
e 134 135 1
e 193 135 1
e 316 193 1
e 133 134 1
e 347 133 1
e 393 89 1
e 14 15 1
e 155 15 1
e 311 15 1
e 349 15 1
e 189 155 1
e 188 189 1
e 5 6 1
e 225 6 1
e 331 6 1
e 381 331 1
e 224 225 1
e 4 5 1
e 3 4 1
e 2 3 1
e 60 2 1
e 174 2 1
e 173 174 1
e 191 174 1
e 272 174 1
e 271 272 1
e 270 271 1
e 322 271 1
e 370 271 1
e 190 191 1
e 234 190 1
e 299 234 1
e 59 60 1
e 176 60 1
e 175 176 1
e 318 175 1
e 58 59 1
e 57 58 1
e 296 58 1
e 301 296 1
e 384 296 1
